120
150
58
52
54
49
58
52
54
51
45
47
59
60
48
56
50
51
53
45
44
48
55
56
44
54
49
55
57
42
40
48
51
46
50
47
49
58
51
56
54
60
60
60
49
46
40
56
52
49
45
54
42
47
56
44
52
40
41
52
60
50
46
47
56
52
52
43
51
52
47
55
60
45
43
51
52
45
55
42
52
55
47
49
50
56
46
52
49
40
49
45
60
60
47
43
49
47
59
54
45
44
46
60
60
50
46
41
45
43
54
60
46
59
44
48
51
43
49
60
50
60
